p cnf 63 102
c weights 1.0 1.0 1.0 1.0 1.0 1.0 1.0 1.0 1.0 1.0 1.0 1.0 1.0 1.0 1.0 1.0 1.0 1.0 1.0 1.0 1.0 1.0 1.0 1.0 1.0 1.0 1.0 1.0 1.0 1.0 1.0 1.0 1.0 1.0 1.0 1.0 1.0 1.0 1.0 1.0 1.0 1.0 1.0 1.0 1.0 1.0 1.0 1.0 1.0 1.0 1.0 1.0 1.0 1.0 1.0 1.0 1.0 1.0 1.0 1.0 1.0 1.0 1.0 1.0 1.0 1.0 1.0 1.0 0.2 0.8 0.2 0.8 0.2 0.8 0.3 0.7 0.0 1.0 0.3 0.7 0.0 1.0 0.3 0.7 0.0 1.0 0.1 0.9 0.1 0.9 0.1 0.9 0.1 0.9 0.4 0.6 0.0 1.0 0.0 1.0 0.0 1.0 0.4 0.6 0.0 1.0 0.0 1.0 0.0 1.0 0.4 0.6 0.0 1.0 0.0 1.0 0.0 1.0 0.4 0.6 0.0 1.0 0.0 1.0 0.0 1.0
1 2 0
-1 -2 0
3 4 0
-3 -4 0
5 6 0
-5 -6 0
7 8 0
-7 -8 0
9 10 0
-9 -10 0
11 12 0
-11 -12 0
13 14 0
-13 -14 0
15 16 0
-15 -16 0
17 18 0
-17 -18 0
19 20 0
-19 -20 0
21 22 0
-21 -22 0
23 24 0
-23 -24 0
25 26 0
-25 -26 0
27 28 0
-27 -28 0
29 30 0
-29 -30 0
31 32 0
-31 -32 0
33 34 0
-33 -34 0
-35 1 0
35 2 0
-36 3 0
36 4 0
-37 5 0
37 6 0
-1 -38 7 0
-1 38 8 0
-2 -39 7 0
-2 39 8 0
-3 -40 9 0
-3 40 10 0
-4 -41 9 0
-4 41 10 0
-5 -42 11 0
-5 42 12 0
-6 -43 11 0
-6 43 12 0
-44 13 0
44 14 0
-45 15 0
45 16 0
-46 17 0
46 18 0
-47 19 0
47 20 0
-17 -11 -48 21 0
-17 -11 48 22 0
-17 -12 -49 21 0
-17 -12 49 22 0
-18 -11 -50 21 0
-18 -11 50 22 0
-18 -12 -51 21 0
-18 -12 51 22 0
-19 -9 -52 23 0
-19 -9 52 24 0
-19 -10 -53 23 0
-19 -10 53 24 0
-20 -9 -54 23 0
-20 -9 54 24 0
-20 -10 -55 23 0
-20 -10 55 24 0
-25 21 9 0
25 -21 0
25 -9 0
-27 23 11 0
27 -23 0
27 -11 0
-13 -25 -56 29 0
-13 -25 56 30 0
-13 -26 -57 29 0
-13 -26 57 30 0
-14 -25 -58 29 0
-14 -25 58 30 0
-14 -26 -59 29 0
-14 -26 59 30 0
-15 -27 -60 31 0
-15 -27 60 32 0
-15 -28 -61 31 0
-15 -28 61 32 0
-16 -27 -62 31 0
-16 -27 62 32 0
-16 -28 -63 31 0
-16 -28 63 32 0
-33 7 29 31 0
33 -7 0
33 -29 0
33 -31 0